% File represents an instance of a Composite Structure problem to be solved by a CP framework
% Created on 2025-03-26 10:41:19.716
T = 58;
n = 9;
m = 12;
edges = [(1, 2),
(4, 5),
(8, 7),
(2, 3),
(5, 6),
(8, 9),
(1, 4),
(4, 7),
(5, 2),
(8, 5),
(6, 3),
(9, 6)];
counts = [|4, 20, 4, 28,
|4, 20, 4, 22,
|4, 20, 4, 16,
|4, 20, 4, 26,
|4, 20, 4, 24,
|4, 20, 4, 18,
|4, 18, 4, 26,
|4, 22, 4, 28,
|4, 20, 4, 24|];
